Set parameter Username
Academic license - for non-commercial use only - expires 2024-02-22
Warning: Gurobi version mismatch between Python 9.5.0 and C library 9.5.2
Set parameter TimeLimit to value 3600
Set parameter MIPGap to value 1e-06
Set parameter Threads to value 1
Gurobi Optimizer version 9.5.2 build v9.5.2rc0 (linux64)
Thread count: 4 physical cores, 4 logical processors, using up to 1 threads
Optimize a model with 4446 rows, 4342 columns and 18122 nonzeros
Model fingerprint: 0xecc71454
Variable types: 4238 continuous, 104 integer (104 binary)
Coefficient statistics:
  Matrix range     [1e+00, 2e+02]
  Objective range  [8e-01, 2e+03]
  Bounds range     [1e+00, 1e+00]
  RHS range        [3e+01, 2e+02]
Presolve removed 129 rows and 76 columns
Presolve time: 0.03s
Presolved: 4317 rows, 4266 columns, 16714 nonzeros
Variable types: 4163 continuous, 103 integer (103 binary)
Found heuristic solution: objective 114414.00000

Root relaxation: objective 1.823820e+04, 2360 iterations, 0.10 seconds (0.10 work units)

    Nodes    |    Current Node    |     Objective Bounds      |     Work
 Expl Unexpl |  Obj  Depth IntInf | Incumbent    BestBd   Gap | It/Node Time

     0     0 18238.1994    0   57 114414.000 18238.1994  84.1%     -    0s
H    0     0                    44600.291163 18238.1994  59.1%     -    0s
H    0     0                    44289.075624 18238.1994  58.8%     -    0s
     0     0 19177.1041    0   55 44289.0756 19177.1041  56.7%     -    0s
H    0     0                    42396.411244 19177.1041  54.8%     -    0s
     0     0 19197.6061    0   54 42396.4112 19197.6061  54.7%     -    0s
     0     0 19198.5089    0   55 42396.4112 19198.5089  54.7%     -    0s
     0     0 21305.4621    0   45 42396.4112 21305.4621  49.7%     -    0s
H    0     0                    28407.647882 21305.4621  25.0%     -    0s
H    0     0                    23138.400000 21305.4621  7.92%     -    0s
     0     0 21327.2638    0   48 23138.4000 21327.2638  7.83%     -    0s
     0     0 21328.0169    0   48 23138.4000 21328.0169  7.82%     -    0s
     0     0 22106.2139    0   39 23138.4000 22106.2139  4.46%     -    0s
H    0     0                    23039.600000 22106.2139  4.05%     -    0s
     0     0 22306.3116    0   45 23039.6000 22306.3116  3.18%     -    0s
     0     0 22312.2336    0   44 23039.6000 22312.2336  3.16%     -    0s
     0     0 22405.4456    0   36 23039.6000 22405.4456  2.75%     -    0s
H    0     0                    22699.800000 22405.4456  1.30%     -    0s
     0     0 22411.9729    0   35 22699.8000 22411.9729  1.27%     -    0s
     0     0 22413.5981    0   35 22699.8000 22413.5981  1.26%     -    0s
     0     0 22459.9256    0   34 22699.8000 22459.9256  1.06%     -    0s
     0     0 22459.9256    0   57 22699.8000 22459.9256  1.06%     -    0s
     0     0 22459.9256    0   39 22699.8000 22459.9256  1.06%     -    0s
     0     0 22459.9256    0   28 22699.8000 22459.9256  1.06%     -    0s
     0     0 22504.6850    0   29 22699.8000 22504.6850  0.86%     -    0s
     0     0 22513.7837    0   30 22699.8000 22513.7837  0.82%     -    0s
     0     0 22526.4832    0   29 22699.8000 22526.4832  0.76%     -    0s
     0     0 22528.6975    0   30 22699.8000 22528.6975  0.75%     -    0s
     0     0 22546.6898    0   21 22699.8000 22546.6898  0.67%     -    0s
     0     0 22557.5641    0   25 22699.8000 22557.5641  0.63%     -    0s
     0     0 22558.0121    0   25 22699.8000 22558.0121  0.62%     -    0s
     0     0 22574.7680    0   19 22699.8000 22574.7680  0.55%     -    0s
     0     0 22579.9143    0   21 22699.8000 22579.9143  0.53%     -    0s
     0     0 22590.4300    0   21 22699.8000 22590.4300  0.48%     -    0s
     0     0 22590.4300    0   21 22699.8000 22590.4300  0.48%     -    0s
     0     0 22590.4300    0   45 22699.8000 22590.4300  0.48%     -    0s
     0     0 22590.4300    0   19 22699.8000 22590.4300  0.48%     -    0s
     0     0 22590.4300    0   18 22699.8000 22590.4300  0.48%     -    0s
     0     0 22595.9647    0   22 22699.8000 22595.9647  0.46%     -    0s
     0     0 22607.1109    0   19 22699.8000 22607.1109  0.41%     -    0s
     0     0 22611.3325    0   16 22699.8000 22611.3325  0.39%     -    0s
     0     0 22611.3325    0   16 22699.8000 22611.3325  0.39%     -    0s
     0     0 22613.7295    0   23 22699.8000 22613.7295  0.38%     -    0s
     0     0 22616.3161    0   22 22699.8000 22616.3161  0.37%     -    0s
     0     0 22618.1713    0   23 22699.8000 22618.1713  0.36%     -    0s
     0     0 22618.2510    0   11 22699.8000 22618.2510  0.36%     -    0s
     0     0 22618.2510    0   11 22699.8000 22618.2510  0.36%     -    0s
     0     0 22619.1543    0    8 22699.8000 22619.1543  0.36%     -    0s
     0     0 22619.1543    0    8 22699.8000 22619.1543  0.36%     -    0s
H    0     0                    22637.800000 22619.1543  0.08%     -    1s
     0     2 22623.3414    0    4 22637.8000 22623.3414  0.06%     -    1s

Cutting planes:
  Lift-and-project: 3
  Clique: 1
  MIR: 56
  Flow cover: 8

Explored 7 nodes (5155 simplex iterations) in 1.01 seconds (0.72 work units)
Thread count was 1 (of 4 available processors)

Solution count 9: 22637.8 22699.8 23039.6 ... 114414

Optimal solution found (tolerance 1.00e-06)
Best objective 2.263780000000e+04, best bound 2.263780000000e+04, gap 0.0000%
Obj: 22637.8
